p cnf 13 25
-13 11 -9 0
-13 10 8 0
-13 9 -3 0
-13 -8 -4 0
12 4 3 0
-12 -3 2 0
11 -10 -4 0
11 9 -8 0
11 6 5 0
11 6 -5 0
-11 3 -1 0
11 3 1 0
10 -8 -2 0
-10 -6 -3 0
10 -5 2 0
10 5 2 0
10 4 -2 0
9 -8 1 0
9 7 -2 0
-8 -3 -1 0
-7 -5 -2 0
6 -5 -4 0
6 4 2 0
6 3 2 0
-5 -3 1 0
